
Gurobi 11.0.3 (linux64) logging started Fri Nov 22 08:25:11 2024

Set parameter LogFile to value "/home/yihong/Coding/OR_SUC/SUC_results_bigM100000_thread4/case24_ieee_rts_theta0.1_epsilon0.05_gurobi_seed1130000_num_gen100_N_WDR100_load_scaling_factor1_proposed_T20quadra_cost.txt"
Set parameter TimeLimit to value 3600
Gurobi Optimizer version 11.0.3 build v11.0.3rc0 (linux64 - "Ubuntu 20.04.6 LTS")

CPU model: AMD EPYC 7532 32-Core Processor, instruction set [SSE2|AVX|AVX2]
Thread count: 64 physical cores, 128 logical processors, using up to 4 threads

Optimize a model with 47882 rows, 24901 columns and 1096282 nonzeros
Model fingerprint: 0x19741c0c
Model has 2000 quadratic constraints
Variable types: 22901 continuous, 2000 integer (2000 binary)
Coefficient statistics:
  Matrix range     [3e-04, 2e+03]
  QMatrix range    [2e-03, 8e-03]
  QLMatrix range   [3e-01, 6e+01]
  Objective range  [1e+00, 1e+00]
  Bounds range     [1e+00, 1e+00]
  RHS range        [1e+00, 9e+03]
Presolve removed 39092 rows and 10554 columns
Presolve time: 0.34s
Presolved: 8790 rows, 14347 columns, 49026 nonzeros
Presolved model has 2000 quadratic constraint(s)
Variable types: 12347 continuous, 2000 integer (2000 binary)

Root relaxation: objective 2.938169e+04, 6911 iterations, 0.19 seconds (0.27 work units)

    Nodes    |    Current Node    |     Objective Bounds      |     Work
 Expl Unexpl |  Obj  Depth IntInf | Incumbent    BestBd   Gap | It/Node Time

H    0     0                    569134.84350 29381.6924  94.8%     -    0s
*    0     0               0    569134.84350 29381.6924  94.8%     -    0s
     0     0 285166.836    0  585 569134.843 285166.836  49.9%     -    1s
     0     0 519065.368    0  217 569134.843 519065.368  8.80%     -    1s
     0     0 519227.706    0   45 569134.843 519227.706  8.77%     -    1s
     0     0 519227.706    0   45 569134.843 519227.706  8.77%     -    2s
     0     0 519227.706    0   25 569134.843 519227.706  8.77%     -    2s
     0     0 519227.706    0   25 569134.843 519227.706  8.77%     -    2s
     0     0 519227.706    0   25 569134.843 519227.706  8.77%     -    2s
     0     0 519227.706    0   25 569134.843 519227.706  8.77%     -    2s
     0     2 519227.706    0   25 569134.843 519227.706  8.77%     -    3s
    61    73 519307.713   16   52 569134.843 519231.119  8.77%  58.5    5s
H   70    73                    519248.76953 519231.119  0.00%  52.3    5s
*   70    73              24    519248.76953 519231.119  0.00%  52.3    5s

Cutting planes:
  Gomory: 28
  Lift-and-project: 1
  Implied bound: 304
  MIR: 24
  Flow cover: 117
  RLT: 273
  Relax-and-lift: 99

Explored 76 nodes (21582 simplex iterations) in 5.80 seconds (7.18 work units)
Thread count was 4 (of 128 available processors)

Solution count 3: 519249 519249 569135 

Optimal solution found (tolerance 1.00e-03)
Warning: max constraint violation (5.3307e-08) exceeds tolerance
Best objective 5.192487695339e+05, best bound 5.192311186942e+05, gap 0.0034%
